<number of tasks>
50

<cycle time>
1000

<order strength>
0.596


<task times>
1 107
2 79
3 130
4 78
5 40
6 37
7 74
8 102
9 109
10 70
11 153
12 223
13 216
14 104
15 28
16 134
17 230
18 150
19 106
20 155
21 136
22 21
23 215
24 129
25 142
26 171
27 144
28 91
29 173
30 63
31 213
32 108
33 121
34 141
35 177
36 50
37 198
38 145
39 84
40 107
41 368
42 102
43 190
44 169
45 33
46 34
47 240
48 330
49 59
50 77

<precedence relations>
1,19
2,8
3,5
3,6
3,7
3,8
4,5
4,19
5,9
5,11
6,9
6,10
6,11
6,12
6,19
7,9
7,11
7,13
8,12
8,14
9,16
9,18
10,15
10,33
11,15
11,21
11,22
12,17
12,35
13,19
13,21
14,15
14,18
14,21
15,23
16,20
16,21
16,22
16,23
17,40
18,20
18,22
19,23
19,29
19,39
20,28
21,24
21,25
21,26
22,32
22,42
22,45
23,27
23,28
25,29
26,32
26,33
28,30
28,31
28,34
29,40
29,41
30,35
31,37
32,43
33,35
33,39
33,40
34,36
34,38
34,40
34,47
34,49
37,40
37,42
37,43
37,46
38,41
39,41
39,43
41,45
42,44
43,44
44,47
44,49
44,50
45,46
45,48

<end>
